%%%mzn-stat: initTime=0.003689627
%%%mzn-stat: objective=513
%%%mzn-stat: nodes=653
%%%mzn-stat: restarts=0
%%%mzn-stat: peakDepth=141
%%%mzn-stat: solveTime=0.032954387
%%%mzn-stat: variables=398
%%%mzn-stat: propagators=273
%%%mzn-stat: failures=512
%%%mzn-stat: propagations=85937
%%%mzn-stat: nogoods=512
%%%mzn-stat: AverageConflictSize=2
%%%mzn-stat: NumUnitNogoodsLearned=512
%%%mzn-stat: AverageLearnedNogoodLength=1
%%%mzn-stat: AverageBacktrackAmount=0
%%%mzn-stat: AverageLbd=1
%%%mzn-stat-end
maxleg = 513;
succ = array1d(1..20,[20, 10, 13, 15, 4, 2, 3, 14, 6, 19, 18, 8, 16, 17, 11, 12, 9, 1, 5, 7]);
% time elapsed: 0.25 s
----------
==========
% time elapsed: 0.25 s
%%%mzn-stat: initTime=0.003689627
%%%mzn-stat: objective=513
%%%mzn-stat: nodes=653
%%%mzn-stat: restarts=0
%%%mzn-stat: peakDepth=141
%%%mzn-stat: solveTime=0.032957626
%%%mzn-stat: variables=398
%%%mzn-stat: propagators=273
%%%mzn-stat: failures=512
%%%mzn-stat: propagations=85937
%%%mzn-stat: nogoods=512
%%%mzn-stat: AverageConflictSize=2
%%%mzn-stat: NumUnitNogoodsLearned=512
%%%mzn-stat: AverageLearnedNogoodLength=1
%%%mzn-stat: AverageBacktrackAmount=0
%%%mzn-stat: AverageLbd=1
%%%mzn-stat-end
